set VV := 0 1 2 3 4 ;
set VS := 0 1 2 3 4 5 6 7 8 9 10 11 12 13 14 ;
param cv := 
0 22
1 22
2 11
3 21
4 14
;
param cs := 
0 34
1 35
2 20
3 25
4 40
5 38
6 28
7 31
8 29
9 39
10 22
11 38
12 34
13 32
14 26
;
param bv:	 0 1 2 3 4 := 
		0 0 0 18 0 0 
		1 0 0 14 0 0 
		2 0 0 0 0 10 
		3 0 0 0 0 20 
		4 0 0 0 0 0 
;
param bs:	 0 1 2 3 4 5 6 7 8 9 10 11 12 13 14 := 
		0 0 0 0 0 0 33 0 0 0 0 0 0 0 0 0 
		1 0 0 37 33 0 0 0 0 26 0 0 0 21 30 0 
		2 0 37 0 0 0 26 30 0 0 0 0 0 0 0 0 
		3 0 33 0 0 0 0 0 0 0 0 0 0 40 0 0 
		4 0 0 0 0 0 0 35 26 0 0 0 0 0 23 0 
		5 33 0 26 0 0 0 38 0 0 0 0 0 0 0 0 
		6 0 0 30 0 35 38 0 0 0 0 0 0 0 40 0 
		7 0 0 0 0 26 0 0 0 0 0 0 0 0 0 0 
		8 0 26 0 0 0 0 0 0 0 0 0 0 0 0 29 
		9 0 0 0 0 0 0 0 0 0 0 0 39 0 31 0 
		10 0 0 0 0 0 0 0 0 0 0 0 33 0 0 0 
		11 0 0 0 0 0 0 0 0 0 39 33 0 0 0 0 
		12 0 21 0 40 0 0 0 0 0 0 0 0 0 0 0 
		13 0 30 0 0 23 0 40 0 0 31 0 0 0 0 0 
		14 0 0 0 0 0 0 0 0 29 0 0 0 0 0 0 
;
